
Model name: lp
                x1       x2 
Maximize         1        2 
r_1              3        3 <=       12
r_2              1        3 <=        9
Type          Real     Real 
upbo       Infinite Infinite
lowbo            0        0 

Value of objective function: 6.5

Actual values of the variables:
x1                   1.5
x2                   2.5

Actual values of the constraints:
r_1                  12
r_2                  9

Dual values with from - till limits:
r_1                  0.166667         9       27
r_2                       0.5         4       12
x1                          0   -1e+024   1e+024
x2                          0   -1e+024   1e+024
